benchmarks/bfuzz0/29512152318694155741436217215287528325.smt2
(set-logic QF_FP)
(declare-const x0 (_ FloatingPoint 8 24))
(declare-const x1 (_ FloatingPoint 8 24))
(declare-const x2 (_ FloatingPoint 8 24))
(declare-const x3 (_ FloatingPoint 8 24))
(declare-const x4 (_ FloatingPoint 8 24))
(declare-const x5 (_ FloatingPoint 8 24))
(assert (fp.gt (fp.mul RNE (fp.div RNE x4 x2) (fp.add RNE x1 x2)) (fp.div RNE (fp.neg x3) (fp.sub RNE x5 x3))))
(assert (fp.eq (fp.add RNE (fp.add RNE x0 x0) (fp.sub RNE x4 x2)) (fp.add RNE (fp.sub RNE x0 x2) (fp.neg x4))))
(check-sat)
