db/data/29512152318694155741436217215287528325.z3.out
sat
-------------------
10.390512772
